p cnf 75 252
-3 -1 0
-3 2 0
1 -2 3 0
-3 -4 -5 0
3 4 -5 0
-3 4 5 0
3 -4 5 0
-7 5 0
-7 -6 0
-5 6 7 0
3 -6 -9 0
-3 6 -9 0
3 6 9 0
-3 -6 9 0
8 -9 -10 0
-8 9 -10 0
8 9 10 0
-8 -9 10 0
-12 13 -14 0
12 -13 -14 0
-12 -13 14 0
12 13 14 0
-14 -12 -15 0
14 12 -15 0
-14 12 15 0
14 -12 15 0
16 -15 0
16 9 0
15 -9 -16 0
-17 11 0
-17 16 0
-11 -16 17 0
18 -10 0
18 17 0
10 -17 -18 0
20 19 -21 0
-20 -19 -21 0
20 -19 21 0
-20 19 21 0
-19 -21 -22 0
19 21 -22 0
-19 21 22 0
19 -21 22 0
23 -19 0
23 -3 0
19 3 -23 0
-24 -4 0
-24 -23 0
4 23 24 0
25 -22 0
25 -24 0
22 24 -25 0
26 25 0
26 1 0
-25 -1 -26 0
-27 -18 0
-27 26 0
18 -26 27 0
7 -27 -28 0
-7 27 -28 0
7 27 28 0
-7 -27 28 0
-30 14 0
-30 -29 0
-14 29 30 0
32 -31 0
32 3 0
31 -3 -32 0
-32 21 -33 0
32 -21 -33 0
-32 -21 33 0
32 21 33 0
33 -9 -34 0
-33 9 -34 0
33 9 34 0
-33 -9 34 0
-30 34 -35 0
30 -34 -35 0
-30 -34 35 0
30 34 35 0
-36 4 0
-36 15 0
-4 -15 36 0
38 -36 0
38 37 0
36 -37 -38 0
1 -38 -39 0
-1 38 -39 0
1 38 39 0
-1 -38 39 0
40 35 0
40 -39 0
-35 39 -40 0
41 -28 0
41 40 0
28 -40 -41 0
-1 -3 -42 0
1 3 -42 0
-1 3 42 0
1 -3 42 0
-43 41 0
-43 42 0
-41 -42 43 0
-44 -31 0
-44 -12 0
31 12 44 0
20 12 -45 0
-20 -12 -45 0
20 -12 45 0
-20 12 45 0
-46 32 0
-46 -45 0
-32 45 46 0
12 31 -47 0
-12 -31 -47 0
12 -31 47 0
-12 31 47 0
48 -20 0
48 -9 0
20 9 -48 0
-49 -47 0
-49 -48 0
47 48 49 0
50 46 0
50 -49 0
-46 49 -50 0
-51 4 0
-51 19 0
-4 -19 51 0
-52 -11 0
-52 34 0
11 -34 52 0
-53 51 0
-53 52 0
-51 -52 53 0
-16 37 -54 0
16 -37 -54 0
-16 -37 54 0
16 37 54 0
-55 53 0
-55 -54 0
-53 54 55 0
56 50 0
56 55 0
-50 -55 -56 0
-44 56 -57 0
44 -56 -57 0
-44 -56 57 0
44 56 57 0
-58 -43 0
-58 -57 0
43 57 58 0
37 3 -59 0
-37 -3 -59 0
37 -3 59 0
-37 3 59 0
60 -30 0
60 -15 0
30 15 -60 0
-61 -1 0
-61 -60 0
1 60 61 0
-62 59 0
-62 -61 0
-59 61 62 0
-5 2 -63 0
5 -2 -63 0
-5 -2 63 0
5 2 63 0
4 -47 -64 0
-4 47 -64 0
4 47 64 0
-4 -47 64 0
63 -64 -65 0
-63 64 -65 0
63 64 65 0
-63 -64 65 0
-66 62 0
-66 65 0
-62 -65 66 0
67 37 0
67 -12 0
-37 12 -67 0
68 12 -69 0
-68 -12 -69 0
68 -12 69 0
-68 12 69 0
67 -69 -70 0
-67 69 -70 0
67 69 70 0
-67 -69 70 0
71 66 0
71 70 0
-66 -70 -71 0
9 45 -72 0
-9 -45 -72 0
9 -45 72 0
-9 45 72 0
72 60 -73 0
-72 -60 -73 0
72 -60 73 0
-72 60 73 0
71 -73 -74 0
-71 73 -74 0
71 73 74 0
-71 -73 74 0
75 58 0
75 -74 0
-58 74 -75 0
-26 -60 70 31 0
-4 72 0
-36 -2 0
50 -32 -27 -37 -71 0
-21 8 -26 -46 0
33 -42 0
55 -73 69 0
44 14 -16 22 0
41 -55 -50 -54 22 0
7 16 -54 0
-56 -42 -8 -23 15 0
-5 67 -49 -75 14 0
-23 -2 -26 4 0
-5 -42 0
-1 52 0
56 63 0
-73 -30 0
-57 74 -68 -27 0
-6 28 -45 0
70 54 67 27 0
-73 21 9 6 40 0
-44 52 73 29 0
-75 -7 -44 0
52 60 42 -44 -71 26 0
17 53 -1 37 28 58 0
-19 69 64 0
52 4 0
-46 38 0
-6 7 -35 -24 0
47 57 0
-26 -58 0
34 6 0
32 -74 -6 -69 -20 0
-47 18 -33 7 -40 -6 0
45 27 2 0
28 11 -56 74 0
-51 -27 -21 34 -40 26 0
-20 -10 -60 -11 63 0
66 37 -45 41 51 0
61 -10 -70 0
3 -11 -65 -54 -68 -1 0
-11 9 0
75 0
